LAMMPS (20 Nov 2019)

units         lj
atom_style    atomic
dimension     3
boundary      p p p

lattice       fcc 1
Lattice spacing in x,y,z = 1.5874 1.5874 1.5874
region        soluto    block 9.5  10.5 0 10 0 10
region        solvente1 block 15  20  0 10 0 10
region        solvente2 block 0   4  0 10 0 10

region        box block 0 20 0 10 0 10
create_box    2 box
Created orthogonal box = (0 0 0) to (31.748 15.874 15.874)
  1 by 1 by 1 MPI processor grid


create_atoms  1 region solvente1
Created 2000 atoms
  create_atoms CPU = 0.00125384 secs
create_atoms  1 region solvente2
Created 1800 atoms
  create_atoms CPU = 0.000605964 secs
create_atoms  2 region soluto
Created 600 atoms
  create_atoms CPU = 0.000308038 secs

pair_style    lj/cut 2.5

pair_coeff    1 1 1.0  1.0
pair_coeff    1 2 1.41 1.0
pair_coeff    2 2 2.0  1.0
mass          1 1.0
mass          2 1.0


# i create a group in order to use fix wall only with soluto

group         gsoluto type 2
600 atoms in group gsoluto
group         gsolvente type 1
3800 atoms in group gsolvente
fix           1 all nve


#gsolvente = A_atoms
#gsoluto = B_atoms


fix            rwall1 gsoluto wall/lj126 xlo 7 1.0 1.0 1.5 pbc yes
fix            rwall2 gsoluto wall/lj126 xhi 12 1.0 1.0 1.5 pbc yes

# Epsilon , Sigma  , R_cut


velocity      all create 2 4928459
timestep      0.001

neighbor      0.3 bin
neigh_modify  every 10 delay 0 check yes

#minimize     1.0e-5 1.0e-6 1000 10000
thermo_style  custom step ke pe etotal press vol density
thermo        100
run_style     verlet


# output data

dump           d all xyz 100 posicion5.xyz
#dump          dd gsoluto  xyz 100 posicion3.xyz type 2
write_data     data.write
Neighbor list info ...
  update every 10 steps, delay 0 steps, check yes
  max neighbors/atom: 2000, page size: 100000
  master list distance cutoff = 2.8
  ghost atom cutoff = 2.8
  binsize = 1.4, bins = 23 12 12
  1 neighbor lists, perpetual/occasional/extra = 1 0 0
  (1) pair lj/cut, perpetual
      attributes: half, newton on
      pair build: half/bin/atomonly/newton
      stencil: half/bin/3d/newton
      bin: standard

#run            10000

variable k equal ke

variable i loop 3
label myloop

if "${i} == 2" then "print 'Walls off'"
if "${i} == 2" then "unfix rwall1"
if "${i} == 2" then "unfix rwall2"

run 10000
Per MPI rank memory allocation (min/avg/max) = 5.143 | 5.143 | 5.143 Mbytes
Step KinEng PotEng TotEng Press Volume Density 
       0    2.9993182   -8.0181637   -5.0188455  -0.74750176         8000         0.55 
     100     1.449322   -6.5505256   -5.1012036    3.1138297         8000         0.55 
     200    1.4814162   -6.5766094   -5.0951931    2.3421348         8000         0.55 
     300    1.4738265   -6.5647606   -5.0909341     1.974278         8000         0.55 
     400    1.4916202   -6.5791415   -5.0875213    1.7920251         8000         0.55 
     500    1.4620604   -6.5452385   -5.0831781    1.6831195         8000         0.55 
     600    1.4822046   -6.5603375   -5.0781329    1.2569329         8000         0.55 
     700    1.4294784   -6.5018804    -5.072402    1.0466784         8000         0.55 
     800    1.3907608   -6.4589075   -5.0681467   0.93004548         8000         0.55 
     900     1.396304    -6.459717   -5.0634131   0.69684717         8000         0.55 
    1000    1.3529713   -6.4124967   -5.0595254   0.52488191         8000         0.55 
    1100    1.3403408   -6.3964095   -5.0560687   0.24497209         8000         0.55 
    1200    1.2802927   -6.3320338   -5.0517411   0.14835542         8000         0.55 
    1300    1.2594026   -6.3081317   -5.0487292   0.01352205         8000         0.55 
    1400    1.2087116    -6.255132   -5.0464204 -0.011945798         8000         0.55 
    1500    1.1909982   -6.2338739   -5.0428758  -0.16304416         8000         0.55 
    1600    1.1375062   -6.1768585   -5.0393522  -0.24532685         8000         0.55 
    1700    1.1065531   -6.1422562   -5.0357031  -0.35330088         8000         0.55 
    1800    1.0515564   -6.0839508   -5.0323944  -0.35990576         8000         0.55 
    1900    1.0308994   -6.0602256   -5.0293262  -0.49783521         8000         0.55 
    2000    1.0044386   -6.0304903   -5.0260517  -0.58859248         8000         0.55 
    2100   0.98944504    -6.012455     -5.02301  -0.67450503         8000         0.55 
    2200   0.94990974   -5.9701084   -5.0201987  -0.66513348         8000         0.55 
    2300   0.93755002   -5.9557626   -5.0182126  -0.71019382         8000         0.55 
    2400    0.9093796   -5.9249856    -5.015606  -0.70954438         8000         0.55 
    2500   0.89166658   -5.9052463   -5.0135797  -0.73029407         8000         0.55 
    2600   0.86354391   -5.8756431   -5.0120992  -0.72589728         8000         0.55 
    2700   0.85622587   -5.8664258   -5.0101999  -0.77800636         8000         0.55 
    2800    0.8282414    -5.836758   -5.0085166  -0.77157297         8000         0.55 
    2900   0.82617082    -5.832736   -5.0065652  -0.82523324         8000         0.55 
    3000   0.80776679   -5.8133669   -5.0056001  -0.81237991         8000         0.55 
    3100   0.81578171   -5.8213449   -5.0055632  -0.80927152         8000         0.55 
    3200   0.80611354   -5.8109345    -5.004821  -0.75422556         8000         0.55 
    3300   0.79738119   -5.8015428   -5.0041616  -0.77527425         8000         0.55 
    3400   0.79566395   -5.7991748   -5.0035108  -0.81804259         8000         0.55 
    3500   0.80026728   -5.8042869   -5.0040196  -0.79218885         8000         0.55 
    3600   0.79991096   -5.8036638   -5.0037529  -0.69843222         8000         0.55 
    3700   0.80543162   -5.8089323   -5.0035006   -0.7096688         8000         0.55 
    3800   0.80046453   -5.8040382   -5.0035737  -0.72640582         8000         0.55 
    3900   0.79033529   -5.7937217   -5.0033865  -0.71222354         8000         0.55 
    4000   0.80121242   -5.8051719   -5.0039594  -0.70777389         8000         0.55 
    4100   0.82451707   -5.8283743   -5.0038573  -0.72976373         8000         0.55 
    4200   0.80254571   -5.8073946   -5.0048489   -0.6177889         8000         0.55 
    4300   0.82883674   -5.8344693   -5.0056325  -0.66274644         8000         0.55 
    4400   0.82672945    -5.833003   -5.0062736  -0.61694202         8000         0.55 
    4500   0.82087041   -5.8283306   -5.0074602   -0.5827582         8000         0.55 
    4600   0.85036245   -5.8585164    -5.008154  -0.64982716         8000         0.55 
    4700   0.84321335   -5.8517931   -5.0085798  -0.54910266         8000         0.55 
    4800   0.84268732   -5.8518484   -5.0091611  -0.51971363         8000         0.55 
    4900   0.85082985   -5.8609114   -5.0100816  -0.49143105         8000         0.55 
    5000   0.86597609   -5.8772427   -5.0112666  -0.49889675         8000         0.55 
    5100   0.88081932   -5.8928511   -5.0120317  -0.46807211         8000         0.55 
    5200   0.88514856   -5.8978013   -5.0126527  -0.40913898         8000         0.55 
    5300   0.88752501   -5.9020209   -5.0144959  -0.36194703         8000         0.55 
    5400   0.89017141   -5.9051118   -5.0149404  -0.29278696         8000         0.55 
    5500   0.91301902   -5.9296235   -5.0166045  -0.28946635         8000         0.55 
    5600   0.92193946    -5.939308   -5.0173685   -0.2162971         8000         0.55 
    5700   0.93550864   -5.9541859   -5.0186772  -0.20022935         8000         0.55 
    5800   0.93600173   -5.9554377    -5.019436  -0.17760683         8000         0.55 
    5900   0.94599938   -5.9668791   -5.0208797  -0.16450173         8000         0.55 
    6000    0.9476311   -5.9694924   -5.0218613  -0.10674538         8000         0.55 
    6100   0.95655864   -5.9798455   -5.0232869 -0.055799095         8000         0.55 
    6200   0.97178281   -5.9958768    -5.024094 -0.0019012957         8000         0.55 
    6300   0.96998893    -5.995411    -5.025422  0.065456981         8000         0.55 
    6400   0.97025289   -5.9972348   -5.0269819   0.10433473         8000         0.55 
    6500    0.9849385   -6.0131724   -5.0282339   0.10413524         8000         0.55 
    6600   0.98347416   -6.0121928   -5.0287187   0.17507341         8000         0.55 
    6700   0.98869058   -6.0185902   -5.0298997   0.17303194         8000         0.55 
    6800   0.99805213     -6.02856   -5.0305079   0.18517237         8000         0.55 
    6900    1.0041623   -6.0359691   -5.0318068   0.24046133         8000         0.55 
    7000    1.0127081    -6.045299   -5.0325909   0.27104145         8000         0.55 
    7100    1.0190779   -6.0519916   -5.0329137   0.26803458         8000         0.55 
    7200   0.99919594   -6.0321229    -5.032927   0.30734029         8000         0.55 
    7300    1.0040015   -6.0375263   -5.0335249   0.31809962         8000         0.55 
    7400    1.0029299   -6.0371894   -5.0342595   0.37871188         8000         0.55 
    7500     1.015655   -6.0500509   -5.0343959   0.35072718         8000         0.55 
    7600    1.0097616   -6.0439443   -5.0341827   0.35330636         8000         0.55 
    7700     1.016783   -6.0508941   -5.0341111   0.32274244         8000         0.55 
    7800     1.015239   -6.0494921   -5.0342531   0.31129925         8000         0.55 
    7900    1.0130328   -6.0467412   -5.0337084   0.29846722         8000         0.55 
    8000    1.0177784    -6.051738   -5.0339596   0.24653174         8000         0.55 
    8100    1.0137611   -6.0470158   -5.0332546   0.22194808         8000         0.55 
    8200    1.0081434   -6.0409481   -5.0328047   0.23208712         8000         0.55 
    8300    1.0052373   -6.0369147   -5.0316774   0.21741746         8000         0.55 
    8400    1.0015137   -6.0321299   -5.0306162   0.17228378         8000         0.55 
    8500    1.0097301   -6.0403834   -5.0306533  0.092745538         8000         0.55 
    8600   0.99652266   -6.0265338   -5.0300111  0.078723385         8000         0.55 
    8700     1.000346   -6.0300512   -5.0297053  0.053066146         8000         0.55 
    8800    0.9920868   -6.0206259   -5.0285391  0.064462366         8000         0.55 
    8900   0.98780084   -6.0157196   -5.0279187 -0.0054780763         8000         0.55 
    9000   0.97401429   -6.0011375   -5.0271232 -0.024949196         8000         0.55 
    9100   0.97345669   -6.0000363   -5.0265797 -0.056875508         8000         0.55 
    9200   0.97461803   -5.9996055   -5.0249875  -0.10017519         8000         0.55 
    9300   0.95657893   -5.9813803   -5.0248014  -0.11354823         8000         0.55 
    9400    0.9452739   -5.9692926   -5.0240187  -0.12309242         8000         0.55 
    9500   0.94246408    -5.965158   -5.0226939  -0.17370625         8000         0.55 
    9600   0.93884514   -5.9605481    -5.021703  -0.25044778         8000         0.55 
    9700   0.93592136   -5.9571731   -5.0212517  -0.29919705         8000         0.55 
    9800   0.92140488    -5.942463   -5.0210581  -0.27528832         8000         0.55 
    9900   0.91235174   -5.9331648   -5.0208131  -0.26427517         8000         0.55 
   10000   0.91717614   -5.9372205   -5.0200444  -0.28862173         8000         0.55 
Loop time of 60.6402 on 1 procs for 10000 steps with 4400 atoms

Performance: 14247.984 tau/day, 164.907 timesteps/s
99.4% CPU use with 1 MPI tasks x no OpenMP threads

MPI task timing breakdown:
Section |  min time  |  avg time  |  max time  |%varavg| %total
---------------------------------------------------------------
Pair    | 53.911     | 53.911     | 53.911     |   0.0 | 88.90
Neigh   | 2.1423     | 2.1423     | 2.1423     |   0.0 |  3.53
Comm    | 1.2118     | 1.2118     | 1.2118     |   0.0 |  2.00
Output  | 1.1667     | 1.1667     | 1.1667     |   0.0 |  1.92
Modify  | 1.8997     | 1.8997     | 1.8997     |   0.0 |  3.13
Other   |            | 0.3087     |            |       |  0.51

Nlocal:    4400 ave 4400 max 4400 min
Histogram: 1 0 0 0 0 0 0 0 0 0
Nghost:    5754 ave 5754 max 5754 min
Histogram: 1 0 0 0 0 0 0 0 0 0
Neighs:    143031 ave 143031 max 143031 min
Histogram: 1 0 0 0 0 0 0 0 0 0

Total # of neighbors = 143031
Ave neighs/atom = 32.507
Neighbor list builds = 217
Dangerous builds = 0
#if "${i} == 2" then "print 'AAAAAAAAAAAAAAAA'"

if "${i} == 2" then "jump SELF myescape"

next i
jump SELF myloop

if "${i} == 2" then "print 'Walls off'"
print 'Walls off'
Walls off
if "${i} == 2" then "unfix rwall1"
unfix rwall1
if "${i} == 2" then "unfix rwall2"
unfix rwall2

run 10000
Per MPI rank memory allocation (min/avg/max) = 5.146 | 5.146 | 5.146 Mbytes
Step KinEng PotEng TotEng Press Volume Density 
   10000   0.91717614   -5.9372205   -5.0200444  -0.28862173         8000         0.55 
   10100   0.90778337   -5.9263473   -5.0185639  -0.29310552         8000         0.55 
   10200   0.89939536    -5.918137   -5.0187416  -0.32699796         8000         0.55 
   10300   0.91084201   -5.9285123   -5.0176702  -0.39864957         8000         0.55 
   10400   0.89802543   -5.9147141   -5.0166886  -0.35858948         8000         0.55 
   10500   0.90186171   -5.9184419   -5.0165802  -0.40870779         8000         0.55 
   10600   0.89846704   -5.9142486   -5.0157816  -0.43446114         8000         0.55 
   10700   0.90649176   -5.9223241   -5.0158323  -0.42469429         8000         0.55 
   10800   0.89549588    -5.911385   -5.0158891  -0.37553211         8000         0.55 
   10900   0.88057022   -5.8961555   -5.0155852   -0.3929836         8000         0.55 
   11000   0.89202123   -5.9069539   -5.0149327  -0.49051143         8000         0.55 
   11100   0.87488825   -5.8894248   -5.0145365  -0.45521863         8000         0.55 
   11200   0.89144164   -5.9064232   -5.0149816  -0.47642998         8000         0.55 
   11300   0.88779228   -5.9036361   -5.0158439  -0.42095603         8000         0.55 
   11400   0.89440207   -5.9103468   -5.0159447  -0.41717824         8000         0.55 
   11500   0.88149163   -5.8970835   -5.0155919  -0.39773562         8000         0.55 
   11600   0.89688199   -5.9131479   -5.0162659  -0.46136498         8000         0.55 
   11700   0.89764237   -5.9137486   -5.0161062  -0.40064748         8000         0.55 
   11800   0.90297982   -5.9200806   -5.0171007   -0.3658633         8000         0.55 
   11900   0.89534354   -5.9125011   -5.0171576  -0.33143232         8000         0.55 
   12000   0.89712978   -5.9142696   -5.0171398   -0.3340621         8000         0.55 
   12100   0.90789831   -5.9256183     -5.01772  -0.35902672         8000         0.55 
   12200   0.89948831   -5.9179218   -5.0184335   -0.2838801         8000         0.55 
   12300   0.92487755   -5.9440725    -5.019195  -0.30513024         8000         0.55 
   12400   0.92171447   -5.9412481   -5.0195336  -0.26777643         8000         0.55 
   12500   0.93950312   -5.9593176   -5.0198145  -0.33731215         8000         0.55 
   12600   0.91896198    -5.938998   -5.0200361  -0.26118845         8000         0.55 
   12700   0.92316704   -5.9432744   -5.0201073  -0.23716543         8000         0.55 
   12800   0.91828981   -5.9388008    -5.020511  -0.17528528         8000         0.55 
   12900   0.92636083   -5.9478345   -5.0214737  -0.16817482         8000         0.55 
   13000   0.92923428   -5.9505892   -5.0213549  -0.15324481         8000         0.55 
   13100   0.93480284   -5.9567209   -5.0219181  -0.14178825         8000         0.55 
   13200   0.95238022   -5.9748215   -5.0224413  -0.15619804         8000         0.55 
   13300   0.94949017   -5.9731886   -5.0236984 -0.067285671         8000         0.55 
   13400    0.9498138   -5.9741811   -5.0243673 -0.055811591         8000         0.55 
   13500   0.96337301   -5.9885866   -5.0252136 -0.091572809         8000         0.55 
   13600    0.9731162   -5.9985356   -5.0254194 -0.083387192         8000         0.55 
   13700   0.96283271   -5.9881706   -5.0253378 -0.00047079542         8000         0.55 
   13800   0.96882689   -5.9949245   -5.0260977  0.030482882         8000         0.55 
   13900   0.97486955   -6.0014638   -5.0265943  0.013337291         8000         0.55 
   14000   0.97308111   -6.0006106   -5.0275295  0.027922063         8000         0.55 
   14100   0.99488801   -6.0227638   -5.0278758 -0.021057865         8000         0.55 
   14200   0.97515155   -6.0032057   -5.0280541  0.051733554         8000         0.55 
   14300   0.97204029   -5.9995713    -5.027531  0.062470038         8000         0.55 
   14400   0.96592009   -5.9935732   -5.0276531  0.063165696         8000         0.55 
   14500   0.97392023   -6.0019075   -5.0279873    0.0573685         8000         0.55 
   14600   0.97045698   -5.9987548   -5.0282979   0.12592793         8000         0.55 
   14700   0.98828397   -6.0165879   -5.0283039   0.10350446         8000         0.55 
   14800   0.98550512   -6.0139235   -5.0284184  0.064684535         8000         0.55 
   14900   0.98679869   -6.0147287     -5.02793  0.031325434         8000         0.55 
   15000   0.98055505   -6.0090051   -5.0284501  0.064317078         8000         0.55 
   15100   0.97955391   -6.0079573   -5.0284034  0.056731684         8000         0.55 
   15200    0.9813938   -6.0095932   -5.0281994  0.013976725         8000         0.55 
   15300   0.96462548   -5.9921514   -5.0275259  0.046936989         8000         0.55 
   15400    0.9802047    -6.007322   -5.0271173 -0.0012342447         8000         0.55 
   15500   0.96866943   -5.9959662   -5.0272968  0.033793715         8000         0.55 
   15600   0.97904587   -6.0065912   -5.0275454  0.036010779         8000         0.55 
   15700   0.98000495   -6.0067811   -5.0267761  0.020029209         8000         0.55 
   15800   0.97867793   -6.0053984   -5.0267204 -0.024984603         8000         0.55 
   15900   0.97100572   -5.9969264   -5.0259207 -0.019613472         8000         0.55 
   16000   0.95763912   -5.9834802   -5.0258411 -0.022595698         8000         0.55 
   16100   0.96010646   -5.9853598   -5.0252534 -0.062575429         8000         0.55 
   16200   0.95366431   -5.9785014   -5.0248371 -0.070480529         8000         0.55 
   16300   0.96173955   -5.9862602   -5.0245207  -0.11984186         8000         0.55 
   16400   0.94410164   -5.9679119   -5.0238102  -0.10010616         8000         0.55 
   16500   0.93984933   -5.9627865   -5.0229372   -0.1097708         8000         0.55 
   16600   0.94122719   -5.9640478   -5.0228206  -0.14315318         8000         0.55 
   16700   0.93069665   -5.9530107   -5.0223141  -0.14278757         8000         0.55 
   16800   0.93361588   -5.9550356   -5.0214198  -0.16829174         8000         0.55 
   16900   0.93831655    -5.959883   -5.0215664  -0.22489036         8000         0.55 
   17000    0.9377869   -5.9584294   -5.0206425  -0.23656128         8000         0.55 
   17100   0.94952244   -5.9704111   -5.0208887   -0.2805184         8000         0.55 
   17200   0.93224806   -5.9523007   -5.0200527  -0.22853462         8000         0.55 
   17300   0.92709913   -5.9472013   -5.0201022   -0.2285707         8000         0.55 
   17400   0.92259718   -5.9422132    -5.019616   -0.2695725         8000         0.55 
   17500   0.92619458   -5.9458152   -5.0196206  -0.32293107         8000         0.55 
   17600   0.90952059   -5.9292206      -5.0197  -0.27379845         8000         0.55 
   17700   0.91765695   -5.9367601   -5.0191031  -0.29375722         8000         0.55 
   17800   0.92620884   -5.9457934   -5.0195846  -0.32444689         8000         0.55 
   17900   0.92212236   -5.9414369   -5.0193145  -0.29715373         8000         0.55 
   18000    0.9197145   -5.9387782   -5.0190637  -0.27984834         8000         0.55 
   18100   0.90830375   -5.9276124   -5.0193086  -0.26089983         8000         0.55 
   18200   0.91884168   -5.9379933   -5.0191516  -0.27424972         8000         0.55 
   18300   0.93028638   -5.9494562   -5.0191698  -0.25373903         8000         0.55 
   18400   0.92671609   -5.9456428   -5.0189267  -0.25852834         8000         0.55 
   18500   0.92585342   -5.9448177   -5.0189643  -0.29512204         8000         0.55 
   18600   0.92304575   -5.9417699   -5.0187241  -0.30542136         8000         0.55 
   18700   0.90626085   -5.9247339    -5.018473  -0.23047168         8000         0.55 
   18800   0.91446441   -5.9331244     -5.01866  -0.25795698         8000         0.55 
   18900   0.91655357   -5.9352059   -5.0186523  -0.24478157         8000         0.55 
   19000   0.90938062   -5.9283846    -5.019004  -0.22925695         8000         0.55 
   19100   0.91186423   -5.9314633   -5.0195991  -0.23193557         8000         0.55 
   19200   0.92499938   -5.9449463    -5.019947  -0.24082114         8000         0.55 
   19300    0.9094109     -5.92978   -5.0203691  -0.15568898         8000         0.55 
   19400   0.92320763    -5.943401   -5.0201934  -0.19543483         8000         0.55 
   19500   0.91616193   -5.9365549   -5.0203929  -0.19222006         8000         0.55 
   19600   0.92399178   -5.9443466   -5.0203549  -0.24057523         8000         0.55 
   19700   0.92077339    -5.941709   -5.0209356  -0.22582289         8000         0.55 
   19800   0.92267153   -5.9437015     -5.02103  -0.18046729         8000         0.55 
   19900   0.92511542   -5.9466856   -5.0215702  -0.14013728         8000         0.55 
   20000   0.93335566   -5.9552302   -5.0218745  -0.14816837         8000         0.55 
Loop time of 62.8845 on 1 procs for 10000 steps with 4400 atoms

Performance: 13739.485 tau/day, 159.022 timesteps/s
99.0% CPU use with 1 MPI tasks x no OpenMP threads

MPI task timing breakdown:
Section |  min time  |  avg time  |  max time  |%varavg| %total
---------------------------------------------------------------
Pair    | 56.237     | 56.237     | 56.237     |   0.0 | 89.43
Neigh   | 2.1244     | 2.1244     | 2.1244     |   0.0 |  3.38
Comm    | 1.3786     | 1.3786     | 1.3786     |   0.0 |  2.19
Output  | 1.2157     | 1.2157     | 1.2157     |   0.0 |  1.93
Modify  | 1.5753     | 1.5753     | 1.5753     |   0.0 |  2.51
Other   |            | 0.3531     |            |       |  0.56

Nlocal:    4400 ave 4400 max 4400 min
Histogram: 1 0 0 0 0 0 0 0 0 0
Nghost:    5801 ave 5801 max 5801 min
Histogram: 1 0 0 0 0 0 0 0 0 0
Neighs:    143858 ave 143858 max 143858 min
Histogram: 1 0 0 0 0 0 0 0 0 0

Total # of neighbors = 143858
Ave neighs/atom = 32.695
Neighbor list builds = 205
Dangerous builds = 0
#if "${i} == 2" then "print 'AAAAAAAAAAAAAAAA'"

if "${i} == 2" then "jump SELF myescape"
jump SELF myescape

print "Enrique es el final"
Enrique es el final

#dump           d all xyz 100 posicion3.xyz
#dump          dd gsoluto  xyz 100 posicion3.xyz type 2
#write_data     data.write

#run           10000
Total wall time: 0:02:03
